<?xml version = "1.0" standalone="yes"?>
<!-- This file has been generated by DOcplex version 2.23.222  -->
<CPLEXSolution version="1.0">
 <header
   problemName="CVRP"
   objectiveValue="17281.9"
  />
 <variables>
  <variable name="x_0_1" index="0" value="1.00000"/>
  <variable name="x_0_3" index="2" value="1.00000"/>
  <variable name="x_0_7" index="6" value="1.00000"/>
  <variable name="x_0_8" index="7" value="1.00000"/>
  <variable name="x_0_10" index="9" value="1.00000"/>
  <variable name="x_0_11" index="10" value="1.00000"/>
  <variable name="x_0_12" index="11" value="1.00000"/>
  <variable name="x_0_16" index="15" value="1.00000"/>
  <variable name="x_0_17" index="16" value="1.00000"/>
  <variable name="x_0_18" index="17" value="1.00000"/>
  <variable name="x_0_20" index="19" value="1.00000"/>
  <variable name="x_0_21" index="20" value="1.00000"/>
  <variable name="x_0_23" index="22" value="1.00000"/>
  <variable name="x_0_24" index="23" value="1.00000"/>
  <variable name="x_0_25" index="24" value="1.00000"/>
  <variable name="x_0_27" index="26" value="1.00000"/>
  <variable name="x_0_29" index="28" value="1.00000"/>
  <variable name="x_1_4" index="32" value="1.00000"/>
  <variable name="x_2_0" index="58" value="1.00000"/>
  <variable name="x_3_2" index="89" value="1.00000"/>
  <variable name="x_4_0" index="116" value="1.00000"/>
  <variable name="x_5_0" index="145" value="1.00000"/>
  <variable name="x_6_0" index="174" value="1.00000"/>
  <variable name="x_7_14" index="216" value="1.00000"/>
  <variable name="x_8_13" index="244" value="1.00000"/>
  <variable name="x_9_0" index="261" value="1.00000"/>
  <variable name="x_10_15" index="304" value="1.00000"/>
  <variable name="x_11_0" index="319" value="1.00000"/>
  <variable name="x_12_0" index="348" value="1.00000"/>
  <variable name="x_13_9" index="386" value="1.00000"/>
  <variable name="x_14_5" index="411" value="1.00000"/>
  <variable name="x_15_0" index="435" value="1.00000"/>
  <variable name="x_16_0" index="464" value="1.00000"/>
  <variable name="x_17_0" index="493" value="1.00000"/>
  <variable name="x_18_6" index="528" value="1.00000"/>
  <variable name="x_19_0" index="551" value="1.00000"/>
  <variable name="x_20_0" index="580" value="1.00000"/>
  <variable name="x_21_22" index="630" value="1.00000"/>
  <variable name="x_22_0" index="638" value="1.00000"/>
  <variable name="x_23_0" index="667" value="1.00000"/>
  <variable name="x_24_0" index="696" value="1.00000"/>
  <variable name="x_25_28" index="752" value="1.00000"/>
  <variable name="x_26_0" index="754" value="1.00000"/>
  <variable name="x_27_26" index="809" value="1.00000"/>
  <variable name="x_28_19" index="831" value="1.00000"/>
  <variable name="x_29_0" index="841" value="1.00000"/>
  <variable name="u_1" index="870" value="32.00000"/>
  <variable name="u_2" index="871" value="68.00000"/>
  <variable name="u_3" index="872" value="39.00000"/>
  <variable name="u_4" index="873" value="68.00000"/>
  <variable name="u_5" index="874" value="68.00000"/>
  <variable name="u_6" index="875" value="60.00000"/>
  <variable name="u_7" index="876" value="16.00000"/>
  <variable name="u_8" index="877" value="15.00000"/>
  <variable name="u_9" index="878" value="68.00000"/>
  <variable name="u_10" index="879" value="14.00000"/>
  <variable name="u_11" index="880" value="53.00000"/>
  <variable name="u_12" index="881" value="60.00000"/>
  <variable name="u_13" index="882" value="29.00000"/>
  <variable name="u_14" index="883" value="25.00000"/>
  <variable name="u_15" index="884" value="55.00000"/>
  <variable name="u_16" index="885" value="55.00000"/>
  <variable name="u_17" index="886" value="53.00000"/>
  <variable name="u_18" index="887" value="25.00000"/>
  <variable name="u_19" index="888" value="68.00000"/>
  <variable name="u_20" index="889" value="68.00000"/>
  <variable name="u_21" index="890" value="20.00000"/>
  <variable name="u_22" index="891" value="68.00000"/>
  <variable name="u_23" index="892" value="67.00000"/>
  <variable name="u_24" index="893" value="42.00000"/>
  <variable name="u_25" index="894" value="13.00000"/>
  <variable name="u_26" index="895" value="68.00000"/>
  <variable name="u_27" index="896" value="54.00000"/>
  <variable name="u_28" index="897" value="58.00000"/>
  <variable name="u_29" index="898" value="52.00000"/>
 </variables>
</CPLEXSolution>
